% The MIT License (MIT)
%
% Permission is hereby granted, free of charge, to any person obtaining a copy
% of this software and associated documentation files (the "Software"), to deal
% in the Software without restriction, including without limitation the rights
% to use, copy, modify, merge, publish, distribute, sublicense, and/or sell
% copies of the Software, and to permit persons to whom the Software is
% furnished to do so, subject to the following conditions:
%
% The above copyright notice and this permission notice shall be included in
% all copies or substantial portions of the Software.
%
% THE SOFTWARE IS PROVIDED "AS IS", WITHOUT WARRANTY OF ANY KIND, EXPRESS OR
% IMPLIED, INCLUDING BUT NOT LIMITED TO THE WARRANTIES OF MERCHANTABILITY,
% FITNESS FOR A PARTICULAR PURPOSE AND NONINFRINGEMENT. IN NO EVENT SHALL THE
% AUTHORS OR COPYRIGHT HOLDERS BE LIABLE FOR ANY CLAIM, DAMAGES OR OTHER
% LIABILITY, WHETHER IN AN ACTION OF CONTRACT, TORT OR OTHERWISE, ARISING FROM,
% OUT OF OR IN CONNECTION WITH THE SOFTWARE OR THE USE OR OTHER DEALINGS IN
% THE SOFTWARE.

% Vehicle Routing Problem Instance
num_vehicles = 4;
num_customers = 15;
vehicle_capacities = [500, 500, 500, 250];
predicted_demands = [0, 6, 20, 13, 11, 6, 4, 1, 17, 13, 11, 6, 2, 8, 17, 5];
predicted_ETAs = 
  [| 0, 32, 41, 31, 58, 68, 40, 62, 33, 44, 67, 56, 56, 63, 37, 59
   | 32, 0, 28, 69, 43, 40, 27, 46, 45, 54, 38, 34, 29, 37, 51, 69
   | 41, 28, 0, 42, 44, 51, 55, 45, 54, 53, 59, 56, 45, 52, 49, 48
   | 31, 69, 42, 0, 38, 47, 14, 61, 35, 50, 79, 44, 48, 53, 70, 37
   | 58, 43, 44, 38, 0, 59, 53, 70, 42, 48, 51, 54, 40, 17, 24, 43
   | 68, 40, 51, 47, 59, 0, 50, 64, 54, 36, 43, 24, 36, 58, 67, 32
   | 40, 27, 55, 14, 53, 50, 0, 31, 60, 77, 55, 58, 37, 38, 71, 55
   | 62, 46, 45, 61, 70, 64, 31, 0, 39, 76, 42, 37, 55, 66, 39, 66
   | 33, 45, 54, 35, 42, 54, 60, 39, 0, 40, 50, 47, 53, 37, 45, 33
   | 44, 54, 53, 50, 48, 36, 77, 76, 40, 0, 53, 33, 60, 31, 74, 71
   | 67, 38, 59, 79, 51, 43, 55, 42, 50, 53, 0, 54, 30, 48, 57, 56
   | 56, 34, 56, 44, 54, 24, 58, 37, 47, 33, 54, 0, 56, 54, 73, 56
   | 56, 29, 45, 48, 40, 36, 37, 55, 53, 60, 30, 56, 0, 40, 36, 63
   | 63, 37, 52, 53, 17, 58, 38, 66, 37, 31, 48, 54, 40, 0, 55, 39
   | 37, 51, 49, 70, 24, 67, 71, 39, 45, 74, 57, 73, 36, 55, 0, 55
   | 59, 69, 48, 37, 43, 32, 55, 66, 33, 71, 56, 56, 63, 39, 55, 0 |];
